$molecule
 0 1
 C      0.0000015118      1.2646641199      0.0015145355
 C      1.1649084922      0.3186108416      0.0009027218
 C     -1.1649056458      0.3186112993      0.0006047851
 C      0.7217423158     -0.9485593002     -0.0001915577
 C     -0.7217397018     -0.9485590157     -0.0003771619
 H     -0.0001126967      1.8922797558      0.8973263452
 H      0.0001158387      1.8937119973     -0.8932926200
 H      2.2006360750      0.6223313764      0.0012938956
 H     -2.2006331753      0.6223322418      0.0007302244
 H      1.3295667488     -1.8404792963     -0.0008362578
 H     -1.3295643001     -1.8404787708     -0.0011800340
$end

$rem
   job_type = opt
   method = wb97x-d
   basis = 6-31g*
   max_scf_cycles = 200
   gen_scfman = True
   scf_algorithm = diis
   geom_opt_max_cycles = 200
$end
