$molecule
 0 1
 C      1.2086456594      0.0000023618      0.0000000000
 C      0.2747861808     -0.0000035811     -1.1771999381
 C      0.2747861808     -0.0000035811      1.1771999381
 C     -0.9941447273     -0.0000007204     -0.7338254040
 C     -0.9941447273     -0.0000007204      0.7338254040
 H      1.8682158342     -0.8790894329      0.0000000000
 H      1.8681921457      0.8791127858      0.0000000000
 H      0.6023067980     -0.0000100561     -2.2099834487
 H      0.6023067980     -0.0000100561      2.2099834487
 H     -1.8888166634     -0.0000007743     -1.3458131664
 H     -1.8888166634     -0.0000007743      1.3458131664
$end

$rem
   job_type = freq
   method = wb97x-d
   basis = 6-31g*
   max_scf_cycles = 200
   gen_scfman = true
   scf_algorithm = diis
   geom_opt_max_cycles = 200
$end
