$molecule
 0 1
 O      0.0000000000      0.0000000000      1.1538497007
 C     -1.0884476041      0.0000000000      0.3474338385
 C      1.0884476041      0.0000000000      0.3474338385
 C     -0.7167401160      0.0000000000     -0.9572092479
 C      0.7167401160      0.0000000000     -0.9572092479
 H     -2.0431194531      0.0000000000      0.8497190526
 H      2.0431194531      0.0000000000      0.8497190526
 H     -1.3734804501      0.0000000000     -1.8148806496
 H      1.3734804501      0.0000000000     -1.8148806496
 C      2.6228567319      2.5011417427      2.0000000000
 C      1.2421124534      2.1136073404      2.0000000000
 C      3.6151055031      1.6103360165      2.0000000000
 N      0.1221849440      1.8142342400      2.0000000000
 H      2.8171584796      3.5697054158      2.0000000000
 H      4.6493806393      1.9373914374      2.0000000000
 H      3.4247214304      0.5419954679      2.0000000000
 ****
 O     -1.5287631277     -0.3487220052     -0.9422753937
 C     -1.4927201941     -0.5190577836      0.4744275666
 C     -0.3370306103      0.4105840940     -1.0446476136
 C     -1.2539424955      0.8983651961      0.9658879074
 C     -0.5246052266      1.4813071024      0.0162468859
 H     -2.3840542562     -1.0373049453      0.8240520732
 H     -0.1507716921      0.7221884997     -2.0708156090
 H     -1.5331643291      1.2830949520      1.9384739730
 H     -0.0535809365      2.4552422326      0.0180299458
 C      0.6996794339     -0.6373141075     -0.4763803936
 C      1.9555271012     -0.0434034407     -0.0283263176
 C     -0.1505844287     -1.2949241222      0.6516075250
 N      2.9474137413      0.4398319686      0.3232455891
 H      0.9225123262     -1.3663411387     -1.2596995057
 H     -0.2927190878     -2.3586421049      0.4504437546
 H      0.2864181425     -1.1768065799      1.6447447100
$end

$rem
   job_type = fsm
   basis = 6-311++g*
   method = wb97xd
   max_scf_cycles = 200
   gen_scfman = true
   xc_grid = 3
   scf_algorithm = diis_gdm
   fsm_ngrad = 3
   fsm_nnode = 18
   fsm_mode = 2
   fsm_opt_mode = 2
$end
